59536.5
721 717 716 715 714 713 730 731 728 729 712 711 601 600 599 598 597 596 595 605 604 603 602 710 709 708 707 606 607 608 609 610 701 702 703 704 705 706 698 699 700 692 691 690 689 629 628 627 626 625 624 623 622 621 620 619 618 617 611 612 616 615 614 613 457 458 589 590 591 592 593 594 585 586 587 588 459 460 461 462 467 466 465 464 463 574 576 575 578 577 580 579 584 582 583 581 565 562 563 561 558 557 556 555 559 560 564 566 567 568 569 570 573 572 571 554 553 517 518 519 521 552 551 549 520 527 529 530 548 550 547 546 545 544 543 537 538 539 540 542 541 536 533 535 534 532 531 528 523 524 522 526 525 515 516 514 512 511 513 510 508 507 509 506 504 505 499 496 498 500 503 502 501 472 471 473 474 470 475 477 494 497 495 492 491 493 490 488 487 486 1451 485 489 484 480 479 478 476 481 482 483 469 1435 1436 1437 1438 1439 1440 1441 1442 1443 1226 1431 1432 1433 1430 1429 1428 1427 1426 1434 1423 1424 1425 468 1421 1422 1420 1419 1418 1417 1416 1415 1414 1413 1412 1411 1410 1409 1408 447 448 449 450 451 455 456 452 453 454 437 438 439 440 441 444 445 446 442 443 1407 1406 1405 1404 1403 1402 1239 1238 1237 1236 1235 1234 1233 1248 1247 1246 1245 1244 1231 1230 1232 1243 1242 1241 1240 1228 1229 1227 1225 1224 1223 1222 1220 1219 1221 1460 1461 1459 1458 1457 1446 1445 1444 1455 1456 1447 1466 1465 1464 1463 1462 1474 1473 1470 1469 1467 1448 1454 1450 1452 1453 1449 1468 1471 1472 1475 1476 1477 1479 1478 1480 1482 1481 1483 1484 1485 1487 1486 1489 1488 1490 1500 1501 1502 1503 1504 1505 1506 1514 1515 1513 1512 1516 1518 1517 1519 1520 1521 1526 1522 1525 1523 1524 1532 1533 1531 1544 1543 1547 1546 1545 1529 1530 1527 1528 1549 1548 1551 1553 1773 1772 1771 1764 1765 1763 1766 1767 1770 1768 1769 1555 1554 1552 1550 1557 1556 1560 1559 1558 1760 1761 1762 1753 1754 1755 1756 1757 1759 1758 1740 1741 1742 1743 1744 1745 1746 1752 1751 1750 1747 1748 1749 186 187 188 189 164 165 166 168 167 185 184 183 182 178 179 180 181 171 170 169 172 173 174 175 176 177 1792 1788 1789 1790 1791 1793 1794 1795 1796 1797 1798 1799 1800 1801 1806 1805 1804 1803 1802 1787 1786 1785 1539 1540 1541 1542 1537 1538 1535 1534 1536 1776 1774 1775 1777 1778 1780 1779 1784 1781 1783 1782 1809 1810 1807 1808 4 1811 1812 1813 1814 1815 1816 0 1 2 3 5 6 7 8 9 10 11 12 13 14 15 16 17 18 19 20 21 22 23 24 25 26 27 28 29 30 31 32 33 34 35 36 37 40 39 38 46 47 48 49 50 45 44 43 41 42 52 53 54 55 56 57 58 51 60 61 62 63 59 64 65 66 67 69 68 76 75 74 73 72 71 70 86 87 88 89 84 83 82 85 79 78 77 80 81 90 93 94 95 96 97 98 99 100 101 102 103 91 92 104 105 106 107 108 109 110 111 112 113 114 115 116 117 118 119 120 122 121 123 124 125 127 128 129 130 131 126 244 245 246 247 248 241 243 242 249 250 251 252 253 254 257 258 259 260 261 262 268 269 270 271 272 281 282 283 284 285 286 287 279 280 278 277 276 275 274 273 267 266 265 264 263 255 256 239 238 237 236 235 234 233 240 232 231 230 229 228 133 132 137 136 135 134 224 225 227 226 220 221 222 223 139 138 143 142 141 140 217 218 219 216 215 214 213 145 144 148 147 146 212 211 210 209 208 207 206 205 204 150 149 151 152 153 203 202 198 156 155 154 160 159 158 157 163 162 161 190 191 192 195 194 193 197 196 201 200 199 1714 1726 1725 1724 1730 1729 1728 1727 1739 1738 1737 1736 1735 1734 1733 1732 1731 1719 1720 1721 1722 1723 1718 1717 1716 1715 1711 1712 1713 1701 1702 1703 1704 1705 1706 1707 1708 1709 1710 1700 1688 1689 1690 1691 1699 1698 1697 1696 1695 1694 1693 1692 1677 1676 1687 1686 1685 1684 1683 1682 1681 1680 1679 1675 1678 1644 1645 1646 1674 1673 1672 1671 1670 1668 1669 1667 1666 1150 1665 1664 1663 1662 1660 1661 1658 1659 1655 1657 1656 1654 1653 1652 1647 1648 1651 1649 1650 1165 1166 1164 1167 1162 1161 1159 1160 1163 1158 1157 1156 1155 1154 1152 1151 1149 1148 1146 1147 1145 1144 1153 1143 1137 1138 1139 1140 1298 1299 1300 1301 1302 1311 1312 1313 1314 1315 1316 1333 1334 1335 1320 1319 1318 1317 1310 1309 1308 1307 1306 1305 1304 1303 1127 1128 1134 1135 1136 1141 1142 1132 1133 1131 1130 1129 1123 1124 1125 1126 1122 1121 1120 1119 1118 1092 1093 1094 1091 1090 1089 1321 1322 1323 1088 1095 1096 1097 1098 1103 1102 1101 1100 1099 1117 1116 1115 1114 1113 1112 1111 1110 1109 1108 1107 1106 1105 1104 1087 1085 1086 1080 1079 1078 1077 1076 319 312 311 310 309 308 307 306 305 304 295 293 291 290 288 289 292 294 296 297 298 299 301 300 302 303 313 314 315 316 318 317 320 321 323 322 324 325 327 326 1070 1071 1072 328 329 1073 1074 1075 1081 1082 1083 1084 330 331 334 333 332 356 357 358 359 363 362 361 360 1342 1341 1340 1339 1338 1337 1336 1324 1325 1326 1327 1328 1329 1330 1331 1332 1370 1371 1372 1373 1374 1375 1376 1377 1378 1379 1297 1296 1295 1294 1293 1292 1291 1290 1289 1174 1173 1168 1169 1170 1172 1175 1177 1178 1176 1179 1180 1181 1190 1182 1183 1189 1188 1187 1184 1619 1186 1185 1620 1621 1628 1629 1632 1633 1636 1637 1640 1641 1171 1642 1643 1639 1638 1635 1634 1631 1630 1626 1625 1627 1624 1623 1622 1618 1617 1616 1613 1615 1614 1612 1609 1610 1611 1601 1600 1599 1602 1603 1604 1605 1606 1607 1608 1569 1570 1571 1572 1573 1574 1493 1492 1496 1495 1494 1564 1565 1566 1567 1568 1561 1562 1563 1511 1510 1509 1508 1507 1497 1498 1499 1491 1575 1576 1577 1578 1579 1580 1581 1583 1582 1590 1591 1592 1593 1594 1584 1585 1589 1588 1586 1587 1598 1597 1596 1595 1214 1215 1218 1217 1216 1209 1210 1211 1212 1213 1208 1207 1206 1205 1204 1250 1249 1253 1252 1251 1203 1202 1201 1200 1199 1198 1197 1193 1194 1268 1192 1191 1272 1271 1270 1269 1263 1262 1264 1265 1266 1267 1195 1196 1254 1255 1256 1257 1258 1259 1261 1260 1397 1398 1399 1400 1401 1393 1392 1358 1359 1360 1391 1390 1389 1388 1394 1395 1396 1386 1387 1385 1384 1383 1282 1283 1284 1285 1286 1277 1276 1275 1274 1273 1288 1287 1278 1279 1280 1281 1380 1381 1382 1361 1362 1363 1364 1365 1366 1367 1368 1369 1343 1344 1345 1346 1347 1357 1356 1355 1354 1353 1352 1351 1350 1349 1348 386 387 388 389 390 393 392 391 406 405 403 401 399 394 395 396 397 398 400 402 404 408 407 436 435 434 433 432 431 422 421 420 419 409 410 411 413 414 415 416 417 418 423 430 429 428 427 426 425 424 412 1028 1029 377 378 382 383 385 384 381 379 371 380 370 368 367 369 364 366 365 372 373 374 375 376 1030 1031 1032 1033 1034 1035 1021 1022 1023 1024 1025 1026 1027 1009 1015 1018 1008 1019 1007 998 999 1017 1016 1010 1014 1013 1012 1011 650 649 648 646 647 645 644 643 642 641 640 639 638 637 630 631 632 633 636 635 634 651 652 1000 1001 1002 1003 1004 1005 657 656 655 654 653 673 674 672 671 670 662 661 660 659 658 663 664 665 666 667 668 669 799 800 801 802 803 804 918 919 920 921 926 927 928 929 930 931 908 907 932 933 934 925 924 923 922 943 935 944 945 946 947 948 949 936 937 938 939 940 941 942 979 980 981 978 977 976 975 974 972 973 982 983 984 985 988 989 990 991 996 1006 997 1020 994 995 992 993 987 986 1039 1040 1041 1042 1043 1044 971 970 1045 1046 1047 1048 1038 1037 1036 1049 1050 1051 1052 1053 1054 1055 1056 343 344 345 346 347 348 349 353 354 355 352 351 350 342 341 339 340 338 335 336 337 1069 1068 1067 1065 1066 1064 1063 1061 1062 1059 1060 1058 1057 969 968 966 967 965 964 962 963 961 960 958 959 957 956 954 955 952 953 950 951 905 906 904 903 901 902 909 910 911 912 913 914 915 916 917 853 854 855 856 857 858 865 866 867 868 900 899 898 897 896 895 894 893 876 877 878 879 880 881 882 883 884 849 850 885 886 887 888 889 890 891 892 861 862 863 864 869 860 859 870 871 875 874 872 852 873 851 844 845 843 842 846 841 848 847 840 839 838 814 815 816 817 832 833 834 835 836 837 825 826 827 828 829 830 831 824 823 822 821 820 819 818 812 811 810 809 808 805 806 807 798 797 796 795 813 794 793 792 791 772 771 769 770 773 774 775 790 789 788 787 786 785 784 783 782 781 780 779 778 777 776 675 676 677 678 679 680 681 682 686 688 685 687 683 684 693 695 694 696 697 768 762 763 764 765 766 759 760 761 767 751 752 753 750 754 755 756 757 758 743 744 745 746 747 748 749 739 740 741 738 737 742 734 735 733 736 723 724 722 726 725 732 727 720 719 718 